mixintcount/benchmarks/random_v2l/3_3_17.smt2
(set-logic QF_LIA)
(set-info :ran/ran2.smt2)
(set-info :smt-lib-version 2.0)
(declare-fun x1 () Int)
(declare-fun x2 () Int)
(declare-fun x3 () Int)
(assert (<= (+ (* 3 x1) (* (- 6) x2) (* 6 x3) ) (- 15)))
(assert (<= (+ (* 7 x1) (* 7 x2) (* (- 4) x3) ) 14))
(assert (<= (+ (* 9 x1) (* 4 x2) (* 8 x3) ) 13))
(assert (<= (+ (* (- 7) x1) (* (- 6) x2) (* (- 4) x3) ) 15))
(assert (<= (+ (* 2 x1) (* 5 x2) (* (- 4) x3) ) 1))
(assert (<= (+ (* (- 6) x1) (* (- 3) x2) (* (- 9) x3) ) (- 14)))
(assert (<= (+ (* 1 x1) (* 0 x2) (* 0 x3) ) 17))
(assert (<= (+ (* (- 1) x1) (* 0 x2) (* 0 x3) ) 17))
(assert (<= (+ (* 0 x1) (* 1 x2) (* 0 x3) ) 17))
(assert (<= (+ (* 0 x1) (* (- 1) x2) (* 0 x3) ) 17))
(assert (<= (+ (* 0 x1) (* 0 x2) (* 1 x3) ) 17))
(assert (<= (+ (* 0 x1) (* 0 x2) (* (- 1) x3) ) 17))
