mixintcount/benchmarks/random_v2l/3_3_17.in
12 5
#	x1	x2	x3;		0 = Real; 1 = Integer
	1	1	1
1	3	-6	6	-15
1	7	7	-4	14
1	9	4	8	13
1	-7	-6	-4	15
1	2	5	-4	1
1	-6	-3	-9	-14
1	1	0	0	17
1	-1	0	0	17
1	0	1	0	17
1	0	-1	0	17
1	0	0	1	17
1	0	0	-1	17
